SCIP Status        : solving was interrupted [time limit reached]
Total Time         :    3600.01
  solving          :    3600.01
  presolving       :       0.07 (included in solving)
  reading          :       0.00
  copying          :       0.25 (59 #copies) (minimal 0.00, maximal 0.01, average 0.00)
Original Problem   :
  Problem name     : multiplants_stg1c
  Variables        : 477 (252 binary, 0 integer, 0 implicit integer, 225 continuous)
  Constraints      : 270 initial, 270 maximal
  Objective        : maximize, 1 non-zeros (abs.min = 1, abs.max = 1)
Presolved Problem  :
  Problem name     : t_multiplants_stg1c
  Variables        : 484 (251 binary, 0 integer, 0 implicit integer, 233 continuous)
  Constraints      : 269 initial, 1278 maximal
  Objective        : minimize, 1 non-zeros (abs.min = 1, abs.max = 1)
  Nonzeros         : 1719 constraint, 1882 clique table
Presolvers         :   ExecTime  SetupTime  Calls  FixedVars   AggrVars   ChgTypes  ChgBounds   AddHoles    DelCons    AddCons   ChgSides   ChgCoefs
  boundshift       :       0.00       0.00      0          0          0          0          0          0          0          0          0          0
  convertinttobin  :       0.00       0.00      0          0          0          0          0          0          0          0          0          0
  domcol           :       0.00       0.00      1          0          0          0          0          0          0          0          0          0
  dualagg          :       0.00       0.00      0          0          0          0          0          0          0          0          0          0
  dualcomp         :       0.00       0.00      1          0          0          0          0          0          0          0          0          0
  dualinfer        :       0.00       0.00      0          0          0          0          0          0          0          0          0          0
  dualsparsify     :       0.00       0.00      1          0          0          0          0          0          0          0          0          0
  gateextraction   :       0.00       0.00      0          0          0          0          0          0          0          0          0          0
  implics          :       0.00       0.00      2          0          0          0          0          0          0          0          0          0
  inttobinary      :       0.00       0.00      0          0          0          0          0          0          0          0          0          0
  qpkktref         :       0.00       0.00      0          0          0          0          0          0          0          0          0          0
  redvub           :       0.00       0.00      0          0          0          0          0          0          0          0          0          0
  sparsify         :       0.00       0.00      1          0          0          0          0          0          0          0          0          0
  stuffing         :       0.00       0.00      0          0          0          0          0          0          0          0          0          0
  trivial          :       0.00       0.00      3         85          0          0          0          0          0          0          0          0
  tworowbnd        :       0.00       0.00      0          0          0          0          0          0          0          0          0          0
  dualfix          :       0.00       0.00      3          0          0          0          0          0          0          0          0          0
  genvbounds       :       0.00       0.00      0          0          0          0          0          0          0          0          0          0
  probing          :       0.06       0.00      1          0          0          0          0          0          0          0          0          0
  pseudoobj        :       0.00       0.00      0          0          0          0          0          0          0          0          0          0
  symmetry         :       0.00       0.00      1          0          0          0          0          0          0          0          0          0
  vbounds          :       0.00       0.00      1          0          0          0          0          0          0          0          0          0
  varbound         :       0.00       0.00      2          0          0          0          0          0          0          0          0          0
  knapsack         :       0.00       0.00      3          0          0          0          0          0          0          0          0          0
  setppc           :       0.00       0.00      3          0          0          0          0          0          0          0          0          0
  linear           :       0.00       0.00      5          0          1          0          3          0          1          0          0          0
  logicor          :       0.00       0.00      0          0          0          0          0          0          0          0          0          0
  bounddisjunction :       0.00       0.00      0          0          0          0          0          0          0          0          0          0
  nonlinear        :       0.01       0.00      6          0          0          0          2          0          0          0          0          0
  benders          :       0.00       0.00      0          0          0          0          0          0          0          0          0          0
  components       :       0.00       0.00      1          0          0          0          0          0          0          0          0          0
  root node        :          -          -      -          0          -          -         76          -          -          -          -          -
Constraints        :     Number  MaxNumber  #Separate #Propagate    #EnfoLP    #EnfoRelax  #EnfoPS    #Check   #ResProp    Cutoffs    DomReds       Cuts    Applied      Conss   Children
  benderslp        :          0          0          0          0     186514          0      14305     132009          0          0          0          0          0          0          0
  integral         :          0          0          0          0     186514          0          0     132009          0          0      31797          0          0       2575     115304
  varbound         :         84         84          9     797042          0          0      13871     132005        703         18     250357          0          0          0          0
  knapsack         :          2+        33          9     797507          0          0      14056     119142      12142        392     291729          0          0          0          0
  setppc           :          4+       202          9     868291          0          0       6279     119053      21046        148     107293          0          0          0          0
  linear           :        157+       181          9     902626          0          0       8466     119006      24553       2344    1913724          0          0          0          0
  logicor          :          0+       785          9     152355          0          0          0          0       3158        225      28739          0          0          0          0
  bounddisjunction :          0+        46          0      88362          0          0          0          0         11          8      11674          0          0          0          0
  nonlinear        :         22         22     926159     900049     125131          0      14305     117934          0       1485    3534389    6791880    3746587          0     238326
  benders          :          0          0          0          0          0          0      14305          5          0          0          0          0          0          0          0
  countsols        :          0          0          0          0          0          0      14305          5          0          0          0          0          0          0          0
  components       :          0          0          0          0          0          0          0          0          0          0          0          0          0          0          0
Constraint Timings :  TotalTime  SetupTime   Separate  Propagate     EnfoLP     EnfoPS     EnfoRelax   Check    ResProp    SB-Prop
  benderslp        :       0.08       0.00       0.00       0.00       0.06       0.00       0.00       0.01       0.00       0.00
  integral         :      41.74       0.00       0.00       0.00      41.67       0.00       0.00       0.07       0.00       0.00
  varbound         :       3.42       0.00       0.00       2.23       0.00       0.04       0.00       0.58       0.00       0.57
  knapsack         :       4.88       0.00       0.00       3.63       0.00       0.02       0.00       0.02       0.01       1.19
  setppc           :       1.84       0.00       0.00       1.46       0.00       0.01       0.00       0.02       0.00       0.34
  linear           :      18.89       0.00       0.00      16.68       0.00       0.02       0.00       0.21       0.03       1.95
  logicor          :       2.04       0.00       0.00       1.75       0.00       0.00       0.00       0.00       0.00       0.28
  bounddisjunction :       0.43       0.00       0.00       0.38       0.00       0.00       0.00       0.00       0.00       0.05
  nonlinear        :    2112.34       0.00    1772.08      86.34     243.79       0.92       0.00       2.75       0.00       6.46
  benders          :       0.00       0.00       0.00       0.00       0.00       0.00       0.00       0.00       0.00       0.00
  countsols        :       0.01       0.00       0.00       0.00       0.00       0.01       0.00       0.00       0.00       0.00
  components       :       0.09       0.00       0.00       0.08       0.00       0.00       0.00       0.00       0.00       0.01
Propagators        : #Propagate   #ResProp    Cutoffs    DomReds
  dualfix          :          2          0          0          0
  genvbounds       :     172311          0          0        155
  nlobbt           :          0          0          0          0
  obbt             :          1          0          0          0
  probing          :          0          0          0          0
  pseudoobj        :     949059          0          0         20
  redcost          :     926649          0          0      33679
  rootredcost      :          3          0          0          2
  symmetry         :          0          0          0          0
  vbounds          :     310926          0          0          0
Propagator Timings :  TotalTime  SetupTime   Presolve  Propagate    ResProp    SB-Prop
  dualfix          :       0.00       0.00       0.00       0.00       0.00       0.00
  genvbounds       :       1.39       0.00       0.00       1.37       0.00       0.02
  nlobbt           :       0.00       0.00       0.00       0.00       0.00       0.00
  obbt             :       0.12       0.00       0.00       0.12       0.00       0.00
  probing          :       0.06       0.00       0.06       0.00       0.00       0.00
  pseudoobj        :       0.65       0.00       0.00       0.64       0.00       0.01
  redcost          :       4.05       0.00       0.00       4.04       0.00       0.01
  rootredcost      :       0.31       0.00       0.00       0.30       0.00       0.01
  symmetry         :       0.14       0.00       0.00       0.13       0.00       0.01
  vbounds          :       0.83       0.00       0.00       0.78       0.00       0.05
Conflict Analysis  :       Time      Calls    Success    DomReds  Conflicts   Literals    Reconvs ReconvLits   Dualrays   Nonzeros   LP Iters   (pool size: [10000,10000])
  propagation      :       0.07       2437       2368          -       7165       11.0        161        5.0          -          -          -
  infeasible LP    :       1.07      18908       2685          -       1682       10.2         60        5.2       2635       44.5          0
  bound exceed. LP :       7.72      33091          0          -          0        0.0          0        0.0          0        0.0          0
  strong branching :       0.00          0          0          -          0        0.0          0        0.0          -          -          0
  pseudo solution  :       0.00          0          0          -          0        0.0          0        0.0          -          -          -
  applied globally :       0.04          -          -          0       6475        8.3          -          -        606          -          -
  applied locally  :          -          -          -         37         11       12.7          -          -       2029          -          -
Separators         :   ExecTime  SetupTime      Calls  RootCalls    Cutoffs    DomReds  FoundCuts ViaPoolAdd  DirectAdd    Applied ViaPoolApp  DirectApp      Conss
  cut pool         :       0.01          -       5245          0          -          -        265        165          -          -          -          -          -    (maximal pool size:         21)
  aggregation      :       0.70       0.00       1864          8          0          0         27         12          0         10         10          0          0
  > cmir           :          -          -          -          -          -          -          -         12          0         10         10          0          -
  > flowcover      :          -          -          -          -          -          -          -          0          0          0          0          0          -
  > knapsackcover  :          -          -          -          -          -          -          -          0          0          0          0          0          -
  cgmip            :       0.00       0.00          0          0          0          0          0          0          0          0          0          0          0
  clique           :       0.00       0.00          8          8          0          0          0          0          0          0          0          0          0
  closecuts        :       0.00       0.00          0          0          0          0          0          0          0          0          0          0          0
  convexproj       :       0.00       0.00          0          0          0          0          0          0          0          0          0          0          0
  disjunctive      :       0.00       0.00          0          0          0          0          0          0          0          0          0          0          0
  eccuts           :       0.00       0.00          0          0          0          0          0          0          0          0          0          0          0
  gauge            :       0.00       0.00          0          0          0          0          0          0          0          0          0          0          0
  gomory           :       1.09       0.00       1606          8          0          0        187        127          0         48         48          0          0
  > gomorymi       :          -          -          -          -          -          -          -         87          0         38         38          0          -
  > strongcg       :          -          -          -          -          -          -          -         40          0         10         10          0          -
  impliedbounds    :       0.09       0.00       1864          8          0          0          2          0          0          0          0          0          0
  interminor       :       0.00       0.00          0          0          0          0          0          0          0          0          0          0          0
  intobj           :       0.00       0.00          0          0          0          0          0          0          0          0          0          0          0
  mcf              :       0.00       0.00          1          1          0          0          0          0          0          0          0          0          0
  minor            :       0.01       0.00          0          0          0          0          0          0          0          0          0          0          0
  mixing           :       0.18       0.00       9696          9          0          0          1          1          0          0          0          0          0
  oddcycle         :       0.00       0.00          0          0          0          0          0          0          0          0          0          0          0
  rapidlearning    :       0.01       0.00          0          0          0          0          0          0          0          0          0          0          0
  rlt              :       0.00       0.00          9          9          0          0          0          0          0          0          0          0          0
  zerohalf         :       0.21       0.00       1606          8          0          0         48         25          0         16         16          0          0
Cutselectors       :   ExecTime  SetupTime      Calls  RootCalls   Selected     Forced   Filtered  RootSelec   RootForc   RootFilt 
  hybrid           :       3.45       0.00     764641          8    3737659       1371    3042858         41          0         57
Pricers            :   ExecTime  SetupTime      Calls       Vars
  problem variables:       0.00          -          0          0
Branching Rules    :   ExecTime  SetupTime   BranchLP  BranchExt   BranchPS    Cutoffs    DomReds       Cuts      Conss   Children
  allfullstrong    :       0.00       0.00          0          0          0          0          0          0          0          0
  cloud            :       0.00       0.00          0          0          0          0          0          0          0          0
  distribution     :       0.00       0.00          0          0          0          0          0          0          0          0
  fullstrong       :       0.00       0.00          0          0          0          0          0          0          0          0
  inference        :       0.00       0.00          0          0          0          0          0          0          0          0
  leastinf         :       0.00       0.00          0          0          0          0          0          0          0          0
  lookahead        :       0.00       0.00          0          0          0          0          0          0          0          0
  mostinf          :       0.00       0.00          0          0          0          0          0          0          0          0
  multaggr         :       0.00       0.00          0          0          0          0          0          0          0          0
  nodereopt        :       0.00       0.00          0          0          0          0          0          0          0          0
  pscost           :       0.44       0.00          0      14305          0          0          0          0          0      28610
  random           :       0.00       0.00          0          0          0          0          0          0          0          0
  relpscost        :      41.59       0.00      61383          0          0          0      31797          0       2843     115304
  vanillafullstrong:       0.00       0.00          0          0          0          0          0          0          0          0
Primal Heuristics  :   ExecTime  SetupTime      Calls      Found       Best
  LP solutions     :       0.00          -          -          0          0
  relax solutions  :       0.00          -          -          0          0
  pseudo solutions :       0.00          -          -          0          0
  strong branching :       0.70          -          -          0          0
  actconsdiving    :       0.00       0.00          0          0          0
  adaptivediving   :       1.22       0.00       6507          0          0
  alns             :      27.38       0.00         25          3          3
  bound            :       0.00       0.00          0          0          0
  clique           :       0.01       0.00          1          0          0
  coefdiving       :       0.00       0.00          0          0          0
  completesol      :       0.00       0.00          0          0          0
  conflictdiving   :       0.88       0.00       9237          0          0
  crossover        :      23.20       0.00          1          0          0
  dins             :       0.00       0.00          0          0          0
  distributiondivin:       5.65       0.00        822          0          0
  dps              :       0.00       0.00          0          0          0
  dualval          :       0.00       0.00          0          0          0
  farkasdiving     :       0.01       0.00          0          0          0
  feaspump         :       1.74       0.00        411          0          0
  fixandinfer      :       0.00       0.00          0          0          0
  fracdiving       :       0.69       0.00       9460          0          0
  gins             :       0.10       0.00          0          0          0
  guideddiving     :       1.48       0.00       8219          0          0
  indicator        :       0.28       0.00          0          0          0
  indicatordiving  :       0.00       0.00          0          0          0
  intdiving        :       0.00       0.00          0          0          0
  intshifting      :       0.08       0.00         57          0          0
  linesearchdiving :       0.83       0.00       9483          0          0
  localbranching   :       0.00       0.00          0          0          0
  locks            :       0.01       0.00          1          0          0
  lpface           :       0.09       0.00          1          0          0
  mpec             :      20.40       0.00         11          0          0
  multistart       :       0.00       0.00          0          0          0
  mutation         :       0.00       0.00          0          0          0
  nlpdiving        :       0.57       0.00          9          0          0
  objpscostdiving  :       1.29       0.00        411          0          0
  octane           :       0.00       0.00          0          0          0
  ofins            :       0.07       0.00          0          0          0
  oneopt           :       0.12       0.00          2          0          0
  padm             :       0.00       0.00          0          0          0
  proximity        :       0.00       0.00          0          0          0
  pscostdiving     :       1.81       0.00        822          0          0
  randrounding     :       0.24       0.00      14089          0          0
  rens             :       3.60       0.00          1          0          0
  reoptsols        :       0.00       0.00          0          0          0
  repair           :       0.00       0.00          0          0          0
  rins             :      30.62       0.00         32          1          1
  rootsoldiving    :       1.62       0.00        411          0          0
  rounding         :       0.46       0.00       6838          0          0
  shiftandpropagate:       0.00       0.00          1          0          0
  shifting         :       0.25       0.00       2132          0          0
  simplerounding   :       0.29       0.00          0          0          0
  subnlp           :       4.34       0.00         29          0          0
  trivial          :       0.00       0.00          2          0          0
  trivialnegation  :       0.00       0.00          0          0          0
  trustregion      :       0.00       0.00          0          0          0
  trysol           :       0.17       0.00          0          0          0
  twoopt           :       0.00       0.00          0          0          0
  undercover       :       0.00       0.00          1          0          0
  vbounds          :       0.00       0.00          0          0          0
  veclendiving     :       0.75       0.00       9548          0          0
  zeroobj          :       0.00       0.00          0          0          0
  zirounding       :       0.08       0.00       1000          0          0
  other solutions  :          -          -          -          0          -
Expressions        :   #IntEval  IntEvalTi   #RevProp  RevPropTi    DomReds    Cutoffs  #Estimate  EstimTime  Branching  #Simplify SimplifyTi Simplified
  pow              :     680880       0.41         44       0.00         40          0    4266314       0.96      36568         42       0.00          0
  prod             :    4357861       1.25    1515014       1.24       6686       1120   60409848    1779.63    7225735        213       0.00        106
  sum              :    6937149       2.15    5817359       3.14     540962         29        494       0.00          0        195       0.00        106
  val              :          0       0.00          0       0.00          0          0          0       0.00          0          0       0.00          0
  var              :    6925715       0.41          0       0.00          0          0          0       0.00          0        855       0.00          6
  varidx           :          0       0.00          0       0.00          0          0          0       0.00          0          0       0.00          0
Nlhdlrs            :    Detects  DetectAll DetectTime   #IntEval  IntEvalTi   #RevProp  RevPropTi    DomReds    Cutoffs   #Enforce   EnfoTime       Cuts  Branching
  soc              :          0          0       0.00          0       0.00          0       0.00          0          0          0       0.00          0          0
  convex           :          0          0       0.00          0       0.00          0       0.00          0          0          0       0.00          0          0
  concave          :          0          0       0.00          0       0.00          0       0.00          0          0          0       0.00          0          0
  signomial        :         21         21       0.00          0       0.00          0       0.00          0          0   40081024      11.55     652680          0
  quotient         :          0          0       0.00          0       0.00          0       0.00          0          0          0       0.00          0          0
  quadratic        :          1          7       0.00     680462      18.68     680166      30.05      29767          0          0       0.00          0          0
  default          :        338       2102       0.00   11976919       4.70    7333152       9.47     547688       1192   64676591    1858.88    6139198          0
  bilinear         :         43         43       0.00          0       0.00          0       0.00          0          0   37696884       3.08          0          0
  perspective      :          0          0       0.00          0       0.00          0       0.00          0          0          0       0.00          0          0
LP                 :       Time      Calls Iterations  Iter/call   Iter/sec  Time-0-It Calls-0-It    ItLimit
  primal LP        :      85.44     114720       1040      49.52      12.17      85.37     114699
  dual LP          :     999.87    1060457   20991220      21.47   20993.95      39.10      82881
  lex dual LP      :       0.00          0          0       0.00          -
  barrier LP       :       0.00          0          0       0.00          -       0.00          0
  resolve instable :       0.17         51       5116     100.31   29393.51
  diving/probing LP:       9.79       6896      91651      13.29    9360.08
  strong branching :      19.20      18854     283807      15.05   14783.48          -          -       2638
    (at root node) :          -         19        209      11.00          -
  conflict analysis:       0.00          0          0       0.00          -
NLP relaxation     :
  solve time       :       0.56 (9 calls)
  convexity        :  nonconvex (247 linear rows, 0 convex ineq., 0 nonconvex ineq., 22 nonlinear eq. or two-sided ineq.)
NLP Solvers        :  #Problems  ProblemTi    #Solves  SolveTime      #Iter  Time/Iter      #Okay #TimeLimit #IterLimit #LObjLimit #Interrupt  #NumError #EvalError  #OutOfMem #LicenseEr #OtherTerm   #GlobOpt    #LocOpt  #Feasible #LocInfeas #GlobInfea #Unbounded   #Unknown
  ipopt            :         42       1.66         58      24.81       6729       0.00         42          0         14          0          0          2          0          0          0          0          0          1          0         32          0          0         25
B&B Tree           :
  number of runs   :          1
  nodes            :     248857 (191120 internal, 57737 leaves)
  feasible leaves  :          0
  infeas. leaves   :      21442
  objective leaves :      36294
  nodes (total)    :     248857 (191120 internal, 57737 leaves)
  nodes left       :     133279
  max depth        :         70
  max depth (total):         70
  backtracks       :      41412 (16.6%)
  early backtracks :          0 (0.0%)
  nodes exc. ref.  :          0 (0.0%)
  delayed cutoffs  :        106
  repropagations   :      39264 (54546 domain reductions, 3 cutoffs)
  avg switch length:       6.25
  switching time   :     140.46
Root Node          :
  First LP value   : +6.09924000000000e+04
  First LP Iters   :         36 (27108.43 Iter/sec)
  First LP Time    :       0.00
  Final Dual Bound : +2.24527396526376e+04
  Final Root Iters :        162
  Root LP Estimate : +2.04452112769288e+04
Solution           :
  Solutions found  :          4 (4 improvements)
  First Solution   : +3.97580207823719e+02   (in run 1, after 18064 nodes, 192.73 seconds, depth 20, found by <alns>)
  Gap First Sol.   :    2883.63 %
  Gap Last Sol.    :    1687.15 %
  Primal Bound     : +6.63392663610064e+02   (in run 1, after 18264 nodes, 204.48 seconds, depth 25, found by <rins>)
  Dual Bound       : +9.82724340296609e+03
  Gap              :    1381.36 %
Integrals          :      Total       Avg%
  primal-dual      :  337607.61      93.78
  primal-ref       :          -          - (not evaluated)
  dual-ref         :          -          - (not evaluated)
